n_res = 4;
rc = [ 11, 17, 16, 15 ];
n_tasks = 30;
d = [ 4, 4, 8, 2, 7, 4, 1, 9, 8, 5, 10, 10, 10, 4, 3, 2, 4, 7, 5, 7, 6, 5, 10, 1, 2, 1, 1, 10, 8, 3 ];
rr = [| 8, 5, 5, 0, 3, 0, 3, 4, 0, 1, 4, 1, 7, 0, 5, 0, 2, 8, 3, 7, 0, 5, 6, 5, 0, 1, 5, 0, 0, 4
      | 4, 3, 0, 1, 0, 8, 3, 7, 6, 7, 5, 7, 1, 1, 0, 9, 0, 1, 5, 2, 9, 10, 8, 3, 5, 10, 4, 7, 0, 1
      | 9, 6, 0, 4, 9, 1, 5, 1, 0, 2, 10, 0, 0, 4, 7, 8, 10, 1, 0, 5, 5, 0, 3, 4, 0, 8, 6, 0, 9, 0
      | 5, 2, 9, 0, 0, 6, 3, 4, 6, 8, 3, 8, 0, 3, 5, 7, 9, 10, 1, 1, 0, 1, 6, 0, 3, 10, 8, 1, 1, 0 |];
suc = [ { 2 }, 
        { 1 }, 
        { 4 }, 
        { 3 }, 
        { 6 }, 
        { 5 }, 
        { 8 }, 
        { 7 }, 
        { 10 }, 
        { 9 }, 
        { 12 }, 
        { 11 }, 
        { 14 }, 
        { 13 }, 
        { 16 }, 
        { 15 }, 
        { 18 }, 
        { 17 }, 
        { 20 }, 
        { 19 }, 
        { 22 }, 
        { 21 }, 
        { 24 }, 
        { 23 }, 
        { 26 }, 
        { 25 }, 
        { 28 }, 
        { 27 }, 
        { 30 }, 
        { 29 }]; 
